30
2 33 34 
2 8 10 
3 15 14 56 
2 44 37 
3 39 6 25 
2 55 32 
3 43 29 11 
2 58 40 
2 13 49 
1 28 
3 46 45 39 
2 1 31 
1 42 
2 18 4 
1 53 
2 26 41 
2 7 34 
2 55 25 
3 5 35 38 
2 19 50 
3 6 24 51 
1 48 
2 54 21 
2 23 22 
3 23 17 27 
1 20 
1 9 
1 3 
1 36 
3 17 16 60 
